* ENCODING=ISO-8859-1
NAME          CPLEX
ROWS
 N  obj1    
 G  c1      
 G  c2      
 G  c3      
 G  c4      
 G  c5      
 G  c6      
 G  c7      
 G  c8      
 G  c9      
 G  c10     
 G  c11     
 G  c12     
 G  c13     
 G  c14     
 G  c15     
 G  c16     
 G  c17     
 G  c18     
 G  c19     
 G  c20     
 G  c21     
 G  c22     
 G  c23     
 G  c24     
 G  c25     
 G  c26     
 G  c27     
 G  c28     
 G  c29     
 G  c30     
 G  c31     
 G  c32     
 G  c33     
 G  c34     
 G  c35     
 G  c36     
 G  c37     
 G  c38     
 G  c39     
 G  c40     
 G  c41     
 G  c42     
 G  c43     
 G  c44     
 G  c45     
 G  c46     
 G  c47     
 G  c48     
 G  c49     
 G  c50     
 G  c51     
 G  c52     
 G  c53     
 G  c54     
 G  c55     
 G  c56     
 G  c57     
 G  c58     
 G  c59     
 G  c60     
COLUMNS
    MARK0000  'MARKER'                 'INTORG'
    x1        obj1                            1
    x1        c4                            488
    x1        c10                           322
    x1        c12                           431
    x1        c15                           947
    x1        c26                           564
    x1        c33                           584
    x1        c39                           317
    x1        c43                           841
    x2        obj1                            1
    x2        c10                           864
    x2        c21                           735
    x2        c33                           397
    x2        c47                           491
    x2        c59                           658
    x3        obj1                            1
    x3        c5                            515
    x3        c12                           719
    x3        c16                           885
    x3        c24                           195
    x3        c27                           502
    x3        c45                           609
    x3        c46                           893
    x3        c53                           646
    x3        c54                           201
    x3        c56                           140
    x4        obj1                            1
    x4        c14                           691
    x4        c20                           530
    x4        c21                           581
    x4        c29                           942
    x4        c37                           154
    x4        c50                           460
    x4        c55                           475
    x5        obj1                            1
    x5        c12                           274
    x5        c16                           607
    x5        c22                           453
    x5        c55                           244
    x5        c59                           692
    x5        c60                           481
    x6        obj1                            1
    x6        c16                           897
    x6        c25                           343
    x6        c31                           905
    x6        c51                           379
    x7        obj1                            1
    x7        c11                           772
    x7        c48                           380
    x7        c50                           509
    x7        c56                           516
    x8        obj1                            1
    x8        c7                            346
    x8        c11                           161
    x8        c24                           612
    x8        c42                           493
    x8        c54                           445
    x8        c55                           190
    x8        c56                           221
    x9        obj1                            1
    x9        c13                           116
    x9        c17                           506
    x9        c18                           735
    x9        c40                           866
    x9        c48                           429
    x9        c50                           345
    x9        c57                           614
    x10       obj1                            1
    x10       c14                           477
    x10       c21                           879
    x10       c25                           224
    x10       c38                           684
    x10       c42                           834
    x11       obj1                            1
    x11       c1                            111
    x11       c2                            389
    x11       c30                           353
    x11       c58                           458
    x12       obj1                            1
    x12       c4                            812
    x12       c6                            912
    x12       c17                           395
    x12       c29                           483
    x12       c42                           955
    x12       c49                           725
    x12       c58                           448
    x13       obj1                            1
    x13       c7                            281
    x13       c27                           303
    x13       c31                           975
    x13       c32                           396
    x13       c42                           825
    x13       c47                           586
    x13       c57                           302
    x14       obj1                            1
    x14       c37                           214
    x15       obj1                            1
    x15       c18                           711
    x15       c24                           489
    x15       c27                           543
    x15       c35                           274
    x15       c45                           334
    x16       obj1                            1
    x16       c28                           431
    x16       c37                           383
    x16       c39                           766
    x16       c48                           291
    x16       c51                           392
    x16       c53                           320
    x16       c57                           636
    x17       obj1                            1
    x17       c9                            419
    x17       c17                           292
    x17       c24                           472
    x17       c25                           664
    x17       c49                           225
    x18       obj1                            1
    x18       c5                            321
    x18       c8                            489
    x18       c9                            743
    x18       c13                          1000
    x18       c17                           129
    x18       c21                           855
    x18       c30                           755
    x18       c46                           680
    x19       obj1                            1
    x19       c3                            564
    x19       c12                           134
    x19       c30                           411
    x19       c37                           776
    x19       c42                           327
    x19       c49                           119
    x19       c52                           136
    x19       c53                           336
    x19       c60                           860
    x20       obj1                            1
    x20       c6                            779
    x20       c11                           452
    x20       c15                           481
    x20       c30                           757
    x20       c47                           829
    x20       c54                           240
    x20       c58                           461
    x20       c59                           857
    x20       c60                           691
    x21       obj1                            1
    x21       c1                            419
    x21       c22                           563
    x21       c30                           114
    x21       c34                           918
    x21       c43                           552
    x21       c44                           828
    x21       c46                           770
    x21       c50                           392
    x22       obj1                            1
    x22       c6                            965
    x22       c9                            573
    x22       c48                           631
    x22       c50                           180
    x23       obj1                            1
    x23       c10                           630
    x23       c16                           788
    x23       c28                           412
    x23       c33                           358
    x23       c35                           340
    x23       c38                           909
    x23       c47                           951
    x23       c48                           133
    x23       c49                           799
    x24       obj1                            1
    x24       c16                           576
    x24       c18                           210
    x24       c20                           296
    x24       c47                           346
    x25       obj1                            1
    x25       c45                           339
    x25       c46                           897
    x25       c50                           762
    x26       obj1                            1
    x26       c19                           908
    x26       c31                           482
    x26       c36                           882
    x26       c51                           665
    x26       c52                           602
    x26       c56                           582
    x27       obj1                            1
    x27       c16                           952
    x27       c19                           176
    x27       c27                           990
    x27       c40                           955
    x27       c42                           628
    x27       c45                           144
    x27       c55                           458
    x27       c58                           361
    x27       c60                           118
    x28       obj1                            1
    x28       c9                            325
    x28       c31                           937
    x28       c45                           126
    x28       c49                           338
    x28       c51                           881
    x28       c58                           383
    x29       obj1                            1
    x29       c10                           850
    x29       c12                           326
    x29       c18                           578
    x29       c32                           740
    x29       c40                           177
    x29       c42                           496
    x30       obj1                            1
    x30       c6                            781
    x30       c21                           184
    x30       c30                           392
    x30       c41                           960
    x30       c46                           187
    x30       c56                           970
    x31       obj1                            1
    x31       c11                           324
    x31       c13                           347
    x31       c34                           900
    x32       obj1                            1
    x32       c4                            717
    x32       c8                            608
    x32       c15                           200
    x32       c19                           744
    x32       c23                           719
    x32       c41                           339
    x33       obj1                            1
    x33       c37                           735
    x33       c48                           471
    x33       c49                           599
    x33       c55                           668
    x33       c60                           824
    x34       obj1                            1
    x34       c3                            535
    x34       c21                           916
    x34       c44                           140
    x34       c50                           803
    x34       c53                           871
    x35       obj1                            1
    x35       c32                           443
    x35       c40                           483
    x35       c48                           139
    x35       c55                           686
    x35       c59                           282
    x36       obj1                            1
    x36       c30                           194
    x36       c44                           536
    x37       obj1                            1
    x37       c4                            668
    x37       c5                            136
    x37       c18                           563
    x37       c23                           223
    x37       c24                           567
    x37       c59                           792
    x38       obj1                            1
    x38       c2                            463
    x38       c17                           449
    x38       c22                           885
    x38       c27                           469
    x38       c28                           857
    x38       c56                           109
    x39       obj1                            1
    x39       c2                            926
    x39       c14                           833
    x39       c16                           804
    x39       c18                           922
    x39       c31                           437
    x39       c46                           828
    x39       c47                           349
    x40       obj1                            1
    x40       c39                           948
    x40       c52                           559
    x40       c53                           299
    x40       c56                           308
    x40       c59                           639
    x40       c60                           127
    x41       obj1                            1
    x41       c2                            371
    x41       c11                          1000
    x41       c27                           178
    x41       c28                           686
    x41       c37                           499
    x41       c52                           190
    x41       c54                           498
    x41       c55                           951
    x42       obj1                            1
    x42       c18                           298
    x42       c24                           721
    x42       c29                           792
    x42       c36                           830
    x42       c39                           234
    x42       c40                           275
    x42       c42                           665
    x42       c45                           977
    x43       obj1                            1
    x43       c3                            407
    x43       c7                            918
    x43       c19                           988
    x43       c32                           387
    x43       c47                           903
    x43       c55                           586
    x44       obj1                            1
    x44       c10                           434
    x44       c21                           116
    x44       c23                           359
    x44       c24                           859
    x44       c29                           879
    x44       c54                           195
    x44       c58                           372
    x45       obj1                            1
    x45       c3                            664
    x45       c15                           652
    x45       c19                           832
    x45       c28                           217
    x45       c44                           727
    x45       c47                           742
    x45       c51                           850
    x46       obj1                            1
    x46       c20                           783
    x46       c28                           657
    x46       c29                           828
    x46       c43                           371
    x46       c46                           570
    x46       c54                           880
    x47       obj1                            1
    x47       c9                            397
    x47       c15                           448
    x47       c19                           595
    x47       c26                           864
    x47       c29                           625
    x47       c33                           869
    x47       c47                           699
    x47       c53                           967
    x48       obj1                            1
    x48       c6                            609
    x48       c7                            938
    x48       c32                           467
    x48       c37                           667
    x48       c44                           819
    x48       c48                           747
    x49       obj1                            1
    x49       c17                           880
    x49       c31                           807
    x49       c35                           548
    x49       c40                           141
    x49       c50                           772
    x49       c53                           143
    x50       obj1                            1
    x50       c2                            129
    x50       c4                            279
    x50       c14                           684
    x50       c24                           800
    x50       c44                           184
    x50       c49                           202
    x51       obj1                            1
    x51       c1                            243
    x51       c4                            552
    x51       c21                           351
    x51       c34                           292
    x51       c40                           937
    x51       c60                           325
    x52       obj1                            1
    x52       c12                           720
    x52       c33                           347
    x52       c43                           369
    x52       c52                           632
    x52       c54                           427
    x52       c55                           599
    x52       c57                           836
    x53       obj1                            1
    x53       c11                           920
    x53       c19                           277
    x53       c28                           454
    x53       c39                           490
    x53       c49                           551
    x53       c56                           607
    x54       obj1                            1
    x54       c13                           494
    x54       c24                           501
    x54       c27                           437
    x54       c36                           149
    x54       c41                           508
    x54       c50                           381
    x55       obj1                            1
    x55       c40                           802
    x55       c49                           550
    x55       c52                           866
    x56       obj1                            1
    x56       c10                           691
    x56       c12                           452
    x56       c23                           789
    x56       c32                           682
    x56       c38                           366
    x56       c51                           823
    x57       obj1                            1
    x57       c4                            122
    x57       c12                           758
    x57       c22                           827
    x57       c23                           940
    x57       c28                           514
    x57       c31                           709
    x57       c39                           591
    x57       c56                           202
    x58       obj1                            1
    x58       c10                           869
    x58       c13                           792
    x58       c15                           652
    x58       c16                           955
    x58       c20                           209
    x58       c35                           701
    x58       c46                           251
    x58       c60                           216
    x59       obj1                            1
    x59       c4                            742
    x59       c7                            529
    x59       c13                           582
    x59       c15                           225
    x59       c17                           550
    x59       c19                           109
    x59       c28                           541
    x59       c29                           184
    x59       c40                           780
    x59       c41                           597
    x59       c45                           333
    x59       c51                           578
    x59       c58                           234
    x60       obj1                            1
    x60       c8                            313
    x60       c20                           330
    x60       c26                           817
    x60       c30                           845
    x60       c32                           107
    x60       c39                           670
    MARK0001  'MARKER'                 'INTEND'
RHS
    rhs       c1                            387
    rhs       c2                           1139
    rhs       c3                           1085
    rhs       c4                           2190
    rhs       c5                            486
    rhs       c6                           2023
    rhs       c7                           1506
    rhs       c8                            705
    rhs       c9                           1229
    rhs       c10                          2330
    rhs       c11                          1815
    rhs       c12                          1907
    rhs       c13                          1666
    rhs       c14                          1343
    rhs       c15                          1803
    rhs       c16                          3232
    rhs       c17                          1601
    rhs       c18                          2009
    rhs       c19                          2315
    rhs       c20                          1074
    rhs       c21                          2309
    rhs       c22                          1364
    rhs       c23                          1515
    rhs       c24                          2608
    rhs       c25                           616
    rhs       c26                          1123
    rhs       c27                          1711
    rhs       c28                          2385
    rhs       c29                          2367
    rhs       c30                          1911
    rhs       c31                          2626
    rhs       c32                          1611
    rhs       c33                          1278
    rhs       c34                          1055
    rhs       c35                           932
    rhs       c36                           931
    rhs       c37                          1714
    rhs       c38                           980
    rhs       c39                          2008
    rhs       c40                          2708
    rhs       c41                          1202
    rhs       c42                          2612
    rhs       c43                          1067
    rhs       c44                          1617
    rhs       c45                          1431
    rhs       c46                          2538
    rhs       c47                          2948
    rhs       c48                          1611
    rhs       c49                          2054
    rhs       c50                          2302
    rhs       c51                          2284
    rhs       c52                          1493
    rhs       c53                          1791
    rhs       c54                          1443
    rhs       c55                          2429
    rhs       c56                          1828
    rhs       c57                          1194
    rhs       c58                          1359
    rhs       c59                          1960
    rhs       c60                          1821
BOUNDS
 LI bnd       x1        0
 LI bnd       x2        0
 LI bnd       x3        0
 LI bnd       x4        0
 LI bnd       x5        0
 LI bnd       x6        0
 LI bnd       x7        0
 LI bnd       x8        0
 LI bnd       x9        0
 LI bnd       x10       0
 LI bnd       x11       0
 LI bnd       x12       0
 LI bnd       x13       0
 LI bnd       x14       0
 LI bnd       x15       0
 LI bnd       x16       0
 LI bnd       x17       0
 LI bnd       x18       0
 LI bnd       x19       0
 LI bnd       x20       0
 LI bnd       x21       0
 LI bnd       x22       0
 LI bnd       x23       0
 LI bnd       x24       0
 LI bnd       x25       0
 LI bnd       x26       0
 LI bnd       x27       0
 LI bnd       x28       0
 LI bnd       x29       0
 LI bnd       x30       0
 LI bnd       x31       0
 LI bnd       x32       0
 LI bnd       x33       0
 LI bnd       x34       0
 LI bnd       x35       0
 LI bnd       x36       0
 LI bnd       x37       0
 LI bnd       x38       0
 LI bnd       x39       0
 LI bnd       x40       0
 LI bnd       x41       0
 LI bnd       x42       0
 LI bnd       x43       0
 LI bnd       x44       0
 LI bnd       x45       0
 LI bnd       x46       0
 LI bnd       x47       0
 LI bnd       x48       0
 LI bnd       x49       0
 LI bnd       x50       0
 LI bnd       x51       0
 LI bnd       x52       0
 LI bnd       x53       0
 LI bnd       x54       0
 LI bnd       x55       0
 LI bnd       x56       0
 LI bnd       x57       0
 LI bnd       x58       0
 LI bnd       x59       0
 LI bnd       x60       0
ENDATA
